\ This file has been generated by DOcplex
\ ENCODING=ISO-8859-1
\Problem name: random_problem.lp

Minimize
 obj: 52 x0 + 26 x1 - 312 x2 - 156 x3 - 286 x4 - 143 x5 + [ 2448 x0^2
      + 2448 x0*x1 - 368 x0*x2 - 184 x0*x3 + 688 x0*x4 + 344 x0*x5 + 612 x1^2
      - 184 x1*x2 - 92 x1*x3 + 344 x1*x4 + 172 x1*x5 + 1168 x2^2 + 1168 x2*x3
      + 112 x2*x4 + 56 x2*x5 + 292 x3^2 + 56 x3*x4 + 28 x3*x5 + 728 x4^2
      + 728 x4*x5 + 182 x5^2 ]/2
Subject To
 c0: 2 x0 + x1 + 2 x2 + x3 + 2 x4 + x5 = 3

Bounds
 0 <= x0 <= 1
 0 <= x1 <= 1
 0 <= x2 <= 1
 0 <= x3 <= 1
 0 <= x4 <= 1
 0 <= x5 <= 1

Binaries
 x0 x1 x2 x3 x4 x5
End
